p cnf 23 103
-19 0
-21 0
-19 0
-21 0
-23 0
1 2 0
-2 -1 0
1 2 0
-2 -1 0
3 4 0
-4 -3 0
3 4 0
-4 -3 0
5 6 0
-6 -5 0
5 6 0
-6 -5 0
7 8 0
-8 -7 0
7 8 0
-8 -7 0
9 10 0
-10 -9 0
9 10 0
-10 -9 0
11 12 0
-12 -11 0
11 12 0
-12 -11 0
13 14 0
-14 -13 0
13 14 0
-14 -13 0
15 16 0
-16 -15 0
15 16 0
-16 -15 0
17 18 0
-18 -17 0
17 18 0
-18 -17 0
19 20 0
-20 -19 0
19 20 0
-20 -19 0
21 22 0
-22 -21 0
21 22 0
-22 -21 0
-5 -1 0
-5 -3 0
-3 -1 0
-9 -1 0
-15 -1 0
-15 -9 0
-13 -1 0
-17 -1 0
-17 -13 0
-7 -3 0
-17 -3 0
-17 -7 0
-7 -3 0
-17 -3 0
-17 -7 0
-17 -15 0
1 3 5 0
-3 -1 0
-5 -3 0
-5 -1 0
1 9 15 0
-15 -9 0
-15 -1 0
-9 -1 0
1 13 17 0
-17 -13 0
-17 -1 0
-13 -1 0
3 7 17 0
-17 -7 0
-17 -3 0
-7 -3 0
3 11 15 0
-15 -11 0
-15 -3 0
-11 -3 0
-1 1 0
-3 3 0
-5 5 0
-7 7 0
-9 9 0
-11 11 0
-13 13 0
-15 15 0
-17 17 0
-3 3 0
-1 1 0
-5 5 0
-7 7 0
-9 9 0
-15 15 0
-17 17 0
-11 11 0
-13 13 0
